Route #1: 35 21 44 31 9 33 7 20
Route #2: 43 32 12 22 8 27 4 28
Route #3: 36 11 14 17 10 16 5 42
Route #4: 29 15 34 6 41 40
Route #5: 26 18 3 38 19 39 23 37
Route #6: 2 30 13 25 1 24
cost 1000.6821899414062